sat
(:eliminated-applications 2
 :eliminated-vars         1
 :max-memory              18.02
 :memory                  17.94
 :nlsat-propagations      6
 :nlsat-stages            3
 :num-allocs              5479
 :rlimit-count            1677
 :time                    0.00
 :total-time              0.01)
